n = 14;
clue = [|  6,  1,  5,  3,  2,  3,  7,  8,  9, 14, 10, 13, 11, 12
 | 14,  9, 13, 10,  3, 12, 11,  4, 13,  8, 10,  6,  5,  7
 |  1, 12,  9, 11,  8, 10, 14, 13,  3,  5,  6,  8,  7,  5
 | 11, 12, 10,  7, 13, 14,  5, 12, 14,  6,  9,  2,  3,  8
 |  2, 10, 14, 13, 12,  7,  1,  4,  5,  2,  7,  3,  4,  6
 | 10, 11, 13, 12, 14,  2,  6,  3,  4,  9,  5,  7,  8,  2
 | 11, 13, 12, 14,  5, 11,  3,  9,  8,  9,  7, 10,  6,  4
 | 13, 14,  1,  4, 13,  5, 12, 12,  6,  7,  8, 11,  9, 10
 |  8,  3,  2,  5,  4,  6, 11,  7, 14, 13, 12,  9, 10, 11
 | 12,  4,  6, 10, 11,  1, 13, 14,  7, 10,  2,  8, 10,  9
 |  6,  2, 14,  9, 10,  5,  8, 12, 11,  3, 14, 13, 12, 11
 |  5,  6,  7,  8,  2,  9, 14, 10, 12, 11, 13, 14,  1, 13
 |  4,  5,  6,  6,  7,  8,  9,  8, 10,  2, 11, 12, 13, 14
 |  2,  7,  8,  3,  9,  6, 10, 11,  7, 12, 13, 14, 14,  3
 |];

